100 8
229 552
776 206
814 835
374 97
420 287
127 697
217 512
197 231
402 276
190 226
343 597
573 577
770 341
124 168
434 719
458 603
802 554
467 791
931 792
777 604
461 816
417 768
319 441
499 623
190 613
197 414
300 569
747 189
712 601
652 858
372 410
825 719
558 483
520 480
208 595
698 287
489 461
249 436
155 228
240 376
625 315
147 631
366 648
422 597
407 748
571 453
484 872
128 152
439 808
260 242
845 604
388 833
492 523
374 426
571 812
275 343
481 530
93 469
375 629
379 477
314 429
408 123
749 769
719 490
631 418
462 832
76 638
173 297
591 836
678 156
876 729
385 273
541 586
402 468
382 756
262 471
339 725
838 489
762 469
826 600
781 261
507 500
373 698
693 787
594 531
174 203
262 491
402 885
574 786
135 715
216 218
154 190
832 505
118 186
375 888
206 524
374 744
569 490
797 726
781 862
